\ This file has been generated by DOcplex
\ ENCODING=ISO-8859-1
\Problem name: Qrandom14342_6.lp

Minimize
 obj: - 3968 x0 - 1984 x1 - 992 x2 - 3980 x3 - 1990 x4 - 995 x5 + [ 2304 x0^2
      + 2304 x0*x1 + 1152 x0*x2 + 4544 x0*x3 + 2272 x0*x4 + 1136 x0*x5
      + 576 x1^2 + 576 x1*x2 + 2272 x1*x3 + 1136 x1*x4 + 568 x1*x5 + 144 x2^2
      + 1136 x2*x3 + 568 x2*x4 + 284 x2*x5 + 2272 x3^2 + 2272 x3*x4 + 1136 x3*x5
      + 568 x4^2 + 568 x4*x5 + 142 x5^2 ]/2 + 3479
Subject To

Bounds
 0 <= x0 <= 1
 0 <= x1 <= 1
 0 <= x2 <= 1
 0 <= x3 <= 1
 0 <= x4 <= 1
 0 <= x5 <= 1

Binaries
 x0 x1 x2 x3 x4 x5
End
